benchmarks/bfuzz0/964207602244126189439250312501329384.smt2
(set-logic QF_FP)
(declare-const x0 (_ FloatingPoint 11 53))
(declare-const x1 (_ FloatingPoint 11 53))
(declare-const x2 (_ FloatingPoint 11 53))
(declare-const x3 (_ FloatingPoint 11 53))
(declare-const x4 (_ FloatingPoint 11 53))
(declare-const x5 (_ FloatingPoint 11 53))
(declare-const x6 (_ FloatingPoint 11 53))
(declare-const x7 (_ FloatingPoint 11 53))
(declare-const x8 (_ FloatingPoint 11 53))
(declare-const x9 (_ FloatingPoint 11 53))
(declare-const x10 (_ FloatingPoint 11 53))
(declare-const x11 (_ FloatingPoint 11 53))
(declare-const x12 (_ FloatingPoint 11 53))
(declare-const x13 (_ FloatingPoint 11 53))
(declare-const x14 (_ FloatingPoint 11 53))
(declare-const x15 (_ FloatingPoint 11 53))
(declare-const x16 (_ FloatingPoint 11 53))
(assert (fp.lt (fp.mul RNE x14 x4) (fp.div RNE x0 x13)))
(assert (fp.lt (fp.div RNE x4 x8) (fp.neg x16)))
(assert (fp.geq (fp.div RNE x4 x8) (fp.mul RNE x8 x7)))
(assert (fp.lt (fp.div RNE x3 x3) (fp.add RNE x0 x5)))
(assert (fp.leq (fp.mul RNE x2 x14) (fp.sub RNE x10 x5)))
(assert (fp.eq (fp.sub RNE x9 x16) (fp.sub RNE x7 x6)))
(assert (fp.leq (fp.mul RNE x13 x11) (fp.div RNE x4 x0)))
(assert (fp.lt (fp.mul RNE x4 x5) (fp.mul RNE x3 x0)))
(check-sat)
