db/data/964207602244126189439250312501329384.z3.out
-------------------
2500.111373842
